NAME          
ROWS
 N  OBJ
 L  c1
COLUMNS
    MARKER    'MARKER'                 'INTORG'
    x[1]      c1        497
    x[1]      OBJ       -536
    x[2]      c1        292
    x[2]      OBJ       -281
    x[3]      c1        566
    x[3]      OBJ       -518
    x[4]      c1        623
    x[4]      OBJ       -663
    x[5]      c1        857
    x[5]      OBJ       -942
    x[6]      c1        402
    x[6]      OBJ       -456
    x[7]      c1        242
    x[7]      OBJ       -333
    x[8]      c1        151
    x[8]      OBJ       -131
    x[9]      c1        655
    x[9]      OBJ       -599
    x[10]     c1        590
    x[10]     OBJ       -516
    x[11]     c1        396
    x[11]     OBJ       -480
    x[12]     c1        235
    x[12]     OBJ       -268
    x[13]     c1        657
    x[13]     OBJ       -564
    x[14]     c1        514
    x[14]     OBJ       -573
    x[15]     c1        318
    x[15]     OBJ       -271
    x[16]     c1        737
    x[16]     OBJ       -761
    x[17]     c1        197
    x[17]     OBJ       -252
    x[18]     c1        367
    x[18]     OBJ       -452
    x[19]     c1        614
    x[19]     OBJ       -553
    x[20]     c1        569
    x[20]     OBJ       -526
    x[21]     c1        287
    x[21]     OBJ       -217
    x[22]     c1        693
    x[22]     OBJ       -769
    x[23]     c1        915
    x[23]     OBJ       -904
    x[24]     c1        27
    x[24]     OBJ       -64
    x[25]     c1        686
    x[25]     OBJ       -749
    x[26]     c1        982
    x[26]     OBJ       -938
    x[27]     c1        572
    x[27]     OBJ       -503
    x[28]     c1        -6
    x[28]     OBJ       -10
    x[29]     c1        320
    x[29]     OBJ       -300
    x[30]     c1        466
    x[30]     OBJ       -427
RHS
    rhs       c1        7210
RANGES
BOUNDS
 BV bounds    x[1]
 BV bounds    x[2]
 BV bounds    x[3]
 BV bounds    x[4]
 BV bounds    x[5]
 BV bounds    x[6]
 BV bounds    x[7]
 BV bounds    x[8]
 BV bounds    x[9]
 BV bounds    x[10]
 BV bounds    x[11]
 BV bounds    x[12]
 BV bounds    x[13]
 BV bounds    x[14]
 BV bounds    x[15]
 BV bounds    x[16]
 BV bounds    x[17]
 BV bounds    x[18]
 BV bounds    x[19]
 BV bounds    x[20]
 BV bounds    x[21]
 BV bounds    x[22]
 BV bounds    x[23]
 BV bounds    x[24]
 BV bounds    x[25]
 BV bounds    x[26]
 BV bounds    x[27]
 BV bounds    x[28]
 BV bounds    x[29]
 BV bounds    x[30]
ENDATA
